param n := 120;
param c := 450
param : V : p w :=
   0	  52	  42
   1	 108	  98
   2	  37	  27
   3	  31	  21
   4	  81	  71
   5	  81	  71
   6	  88	  78
   7	  86	  76
   8	  67	  57
   9	  34	  24
  10	 101	  91
  11	  94	  84
  12	  45	  35
  13	  35	  25
  14	  87	  77
  15	 106	  96
  16	 107	  97
  17	  99	  89
  18	  40	  30
  19	  96	  86
  20	  91	  81
  21	  49	  39
  22	  85	  75
  23	  76	  66
  24	  95	  85
  25	  46	  36
  26	  70	  60
  27	  66	  56
  28	  60	  50
  29	  85	  75
  30	  85	  75
  31	  47	  37
  32	  97	  87
  33	 105	  95
  34	  31	  21
  35	 109	  99
  36	  52	  42
  37	  67	  57
  38	  41	  31
  39	  47	  37
  40	  52	  42
  41	  50	  40
  42	  79	  69
  43	 101	  91
  44	  55	  45
  45	 107	  97
  46	  94	  84
  47	 100	  90
  48	  62	  52
  49	  53	  43
  50	  78	  68
  51	  63	  53
  52	  47	  37
  53	  75	  65
  54	  89	  79
  55	  83	  73
  56	 102	  92
  57	  97	  87
  58	  30	  20
  59	  30	  20
  60	  83	  73
  61	  52	  42
  62	  62	  52
  63	  30	  20
  64	  34	  24
  65	  86	  76
  66	  81	  71
  67	  82	  72
  68	  31	  21
  69	  31	  21
  70	  92	  82
  71	 102	  92
  72	  88	  78
  73	  97	  87
  74	  60	  50
  75	  51	  41
  76	  41	  31
  77	  83	  73
  78	  99	  89
  79	  69	  59
  80	  98	  88
  81	  50	  40
  82	  81	  71
  83	  79	  69
  84	  55	  45
  85	  67	  57
  86	  59	  49
  87	  78	  68
  88	  94	  84
  89	  42	  32
  90	  79	  69
  91	  87	  77
  92	 102	  92
  93	 108	  98
  94	  67	  57
  95	  49	  39
  96	  42	  32
  97	  33	  23
  98	 109	  99
  99	 101	  91
 100	  58	  48
 101	  31	  21
 102	  80	  70
 103	  53	  43
 104	  83	  73
 105	  79	  69
 106	  75	  65
 107	  67	  57
 108	  77	  67
 109	  38	  28
 110	  94	  84
 111	  52	  42
 112	  71	  61
 113	 102	  92
 114	  92	  82
 115	  44	  34
 116	  84	  74
 117	  65	  55
 118	  70	  60
 119	  79	  69
;

set E :=
   0	   1
   0	  10
   0	  18
   0	  19
   0	  22
   0	  23
   0	  32
   0	  33
   0	  39
   0	  41
   0	  46
   0	  50
   0	  51
   0	  53
   0	  57
   0	  67
   0	  68
   0	  75
   0	  87
   0	  88
   0	  94
   0	  96
   0	 104
   0	 105
   0	 112
   0	 114
   1	   8
   1	  11
   1	  15
   1	  20
   1	  24
   1	  29
   1	  30
   1	  32
   1	  33
   1	  38
   1	  46
   1	  54
   1	  58
   1	  62
   1	  67
   1	  75
   1	  81
   1	  86
   1	  89
   1	  94
   1	  95
   1	 106
   1	 114
   1	 115
   1	 116
   1	 118
   1	 119
   2	   4
   2	   5
   2	   7
   2	  11
   2	  23
   2	  26
   2	  29
   2	  30
   2	  31
   2	  35
   2	  38
   2	  42
   2	  45
   2	  48
   2	  62
   2	  64
   2	  66
   2	  70
   2	  79
   2	  91
   2	  96
   2	 101
   2	 104
   2	 107
   2	 113
   2	 115
   2	 117
   3	   6
   3	   7
   3	   8
   3	   9
   3	  11
   3	  17
   3	  22
   3	  27
   3	  29
   3	  47
   3	  50
   3	  57
   3	  60
   3	  64
   3	  65
   3	  67
   3	  68
   3	  77
   3	  87
   3	  88
   3	  95
   3	 102
   3	 103
   3	 104
   3	 105
   4	   5
   4	   6
   4	   8
   4	  12
   4	  14
   4	  15
   4	  21
   4	  23
   4	  24
   4	  27
   4	  28
   4	  35
   4	  36
   4	  39
   4	  47
   4	  48
   4	  58
   4	  73
   4	  83
   4	  85
   4	  88
   4	  91
   4	 100
   4	 106
   4	 107
   4	 109
   4	 110
   4	 111
   4	 118
   5	   6
   5	  14
   5	  18
   5	  19
   5	  24
   5	  32
   5	  39
   5	  41
   5	  47
   5	  54
   5	  66
   5	  68
   5	  69
   5	  70
   5	  71
   5	  84
   5	  89
   5	 102
   5	 104
   5	 106
   5	 113
   5	 115
   5	 117
   6	   7
   6	  15
   6	  19
   6	  26
   6	  27
   6	  31
   6	  32
   6	  33
   6	  45
   6	  66
   6	  72
   6	  74
   6	  81
   6	  86
   6	  87
   6	  91
   6	  94
   6	  97
   6	 100
   6	 101
   6	 118
   7	   9
   7	  14
   7	  17
   7	  19
   7	  21
   7	  26
   7	  27
   7	  33
   7	  37
   7	  41
   7	  44
   7	  49
   7	  51
   7	  54
   7	  70
   7	  83
   7	  84
   7	  93
   7	 100
   7	 106
   7	 107
   7	 108
   7	 109
   7	 116
   8	  11
   8	  13
   8	  14
   8	  16
   8	  18
   8	  21
   8	  24
   8	  25
   8	  28
   8	  37
   8	  47
   8	  50
   8	  54
   8	  59
   8	  61
   8	  68
   8	  75
   8	  77
   8	  80
   8	  87
   8	  88
   8	  89
   8	  94
   8	  97
   8	  99
   8	 111
   8	 116
   9	  13
   9	  17
   9	  18
   9	  23
   9	  24
   9	  28
   9	  29
   9	  40
   9	  43
   9	  45
   9	  48
   9	  58
   9	  59
   9	  64
   9	  72
   9	  73
   9	  79
   9	  81
   9	 100
   9	 109
  10	  20
  10	  24
  10	  26
  10	  29
  10	  40
  10	  52
  10	  55
  10	  58
  10	  62
  10	  64
  10	  66
  10	  75
  10	  80
  10	  86
  10	  87
  10	  96
  10	 102
  10	 111
  10	 113
  11	  15
  11	  19
  11	  20
  11	  26
  11	  28
  11	  31
  11	  33
  11	  34
  11	  37
  11	  41
  11	  42
  11	  47
  11	  50
  11	  52
  11	  53
  11	  54
  11	  60
  11	  65
  11	  71
  11	  76
  11	  77
  11	  87
  11	  89
  11	  99
  11	 100
  11	 102
  11	 104
  11	 106
  11	 107
  11	 118
  12	  18
  12	  22
  12	  23
  12	  34
  12	  41
  12	  42
  12	  55
  12	  60
  12	  62
  12	  65
  12	  68
  12	  74
  12	  81
  12	  83
  12	  87
  12	  95
  12	  96
  12	  97
  12	  98
  12	 104
  12	 105
  12	 119
  13	  16
  13	  18
  13	  19
  13	  29
  13	  30
  13	  36
  13	  51
  13	  56
  13	  73
  13	  77
  13	  88
  13	  91
  13	  98
  13	 102
  13	 112
  13	 115
  13	 116
  14	  16
  14	  25
  14	  30
  14	  34
  14	  37
  14	  44
  14	  54
  14	  58
  14	  61
  14	  62
  14	  72
  14	  76
  14	  78
  14	  82
  14	  86
  14	  90
  14	  97
  14	  99
  14	 104
  14	 108
  14	 109
  14	 110
  14	 116
  14	 117
  15	  25
  15	  27
  15	  35
  15	  59
  15	  70
  15	  71
  15	  72
  15	  73
  15	  76
  15	  82
  15	  85
  15	  90
  15	  92
  15	 105
  16	  18
  16	  28
  16	  32
  16	  34
  16	  35
  16	  41
  16	  47
  16	  58
  16	  62
  16	  64
  16	  66
  16	  76
  16	  92
  16	 100
  16	 105
  16	 106
  16	 114
  16	 119
  17	  19
  17	  24
  17	  25
  17	  29
  17	  30
  17	  33
  17	  34
  17	  61
  17	  65
  17	  74
  17	  75
  17	  77
  17	  78
  17	  80
  17	  81
  17	  82
  17	  88
  17	  89
  17	  93
  17	 101
  17	 112
  17	 115
  17	 116
  18	  32
  18	  33
  18	  41
  18	  50
  18	  60
  18	  64
  18	  78
  18	  82
  18	  83
  18	  86
  18	  87
  18	 101
  18	 102
  18	 103
  18	 107
  18	 110
  18	 118
  19	  28
  19	  33
  19	  37
  19	  45
  19	  57
  19	  58
  19	  80
  19	  89
  19	  96
  19	 101
  19	 109
  19	 110
  19	 112
  19	 115
  19	 117
  19	 119
  20	  23
  20	  26
  20	  31
  20	  41
  20	  44
  20	  46
  20	  64
  20	  66
  20	  67
  20	  68
  20	  72
  20	  75
  20	  78
  20	  82
  20	  83
  20	  93
  20	 106
  20	 110
  20	 115
  21	  24
  21	  31
  21	  41
  21	  49
  21	  51
  21	  52
  21	  64
  21	  75
  21	  77
  21	  79
  21	  85
  21	  86
  21	  88
  21	  92
  21	 106
  21	 114
  22	  24
  22	  32
  22	  37
  22	  39
  22	  45
  22	  53
  22	  54
  22	  69
  22	  71
  22	  79
  22	  96
  22	 102
  22	 107
  23	  25
  23	  36
  23	  41
  23	  45
  23	  53
  23	  56
  23	  64
  23	  74
  23	  75
  23	  80
  23	  81
  23	  84
  23	  90
  23	  92
  23	  96
  23	  99
  23	 104
  23	 105
  23	 108
  23	 114
  24	  26
  24	  40
  24	  43
  24	  58
  24	  62
  24	  65
  24	  73
  24	  74
  24	  81
  24	  82
  24	  89
  24	  92
  24	 100
  24	 101
  24	 106
  24	 107
  24	 111
  24	 117
  25	  26
  25	  28
  25	  31
  25	  33
  25	  38
  25	  42
  25	  46
  25	  48
  25	  54
  25	  58
  25	  60
  25	  61
  25	  65
  25	  67
  25	  68
  25	  69
  25	  72
  25	  73
  25	  74
  25	  85
  25	  87
  25	  90
  25	  92
  25	  97
  25	 106
  25	 118
  26	  37
  26	  56
  26	  57
  26	  59
  26	  65
  26	  79
  26	  80
  26	  81
  26	  86
  26	  89
  26	  90
  26	 102
  26	 119
  27	  29
  27	  64
  27	  68
  27	  71
  27	  72
  27	  83
  27	  85
  27	  88
  27	 103
  27	 109
  27	 110
  27	 111
  27	 119
  28	  43
  28	  49
  28	  60
  28	  62
  28	  72
  28	  81
  28	  84
  28	  85
  28	  88
  28	  92
  28	  94
  28	 101
  28	 104
  28	 112
  28	 118
  29	  30
  29	  31
  29	  33
  29	  41
  29	  44
  29	  45
  29	  53
  29	  61
  29	  64
  29	  72
  29	  81
  29	  82
  29	  93
  29	  95
  29	  97
  29	  98
  29	 105
  29	 106
  29	 118
  30	  34
  30	  43
  30	  47
  30	  50
  30	  53
  30	  54
  30	  56
  30	  59
  30	  60
  30	  62
  30	  65
  30	  74
  30	  82
  30	  96
  30	  99
  30	 104
  30	 105
  30	 106
  30	 108
  31	  32
  31	  35
  31	  41
  31	  42
  31	  45
  31	  48
  31	  50
  31	  59
  31	  71
  31	  78
  31	  85
  31	  87
  31	  90
  31	  96
  31	 100
  31	 106
  31	 109
  32	  53
  32	  55
  32	  60
  32	  72
  32	  74
  32	  75
  32	  78
  32	  82
  32	  91
  32	  92
  32	  93
  32	  94
  32	  95
  32	  97
  32	 102
  32	 103
  32	 104
  32	 105
  32	 108
  32	 110
  32	 111
  32	 119
  33	  35
  33	  41
  33	  51
  33	  66
  33	  82
  33	  87
  33	 102
  33	 110
  33	 119
  34	  35
  34	  41
  34	  47
  34	  54
  34	  58
  34	  63
  34	  66
  34	  67
  34	  74
  34	  77
  34	  86
  34	  89
  34	  91
  34	  96
  34	 102
  34	 108
  34	 109
  34	 119
  35	  40
  35	  53
  35	  54
  35	  56
  35	  65
  35	  78
  35	  79
  35	  80
  35	  86
  35	  96
  35	  97
  35	 108
  35	 109
  35	 112
  35	 114
  36	  46
  36	  49
  36	  56
  36	  64
  36	  66
  36	  67
  36	  75
  36	  76
  36	  78
  36	  83
  36	  87
  36	  88
  36	  95
  36	 100
  36	 102
  36	 106
  36	 116
  36	 117
  37	  44
  37	  53
  37	  55
  37	  69
  37	  76
  37	  94
  37	 100
  37	 105
  37	 106
  37	 113
  37	 119
  38	  41
  38	  42
  38	  46
  38	  58
  38	  59
  38	  67
  38	  70
  38	  81
  38	  89
  38	  90
  38	 108
  38	 109
  38	 112
  39	  44
  39	  55
  39	  59
  39	  62
  39	  63
  39	  73
  39	  77
  39	  80
  39	  84
  39	  94
  39	  97
  39	 101
  39	 102
  39	 107
  40	  46
  40	  48
  40	  56
  40	  57
  40	  62
  40	  66
  40	  76
  40	  78
  40	  83
  40	  85
  40	  90
  40	 100
  40	 105
  41	  44
  41	  45
  41	  49
  41	  51
  41	  54
  41	  61
  41	  62
  41	  68
  41	  72
  41	  74
  41	  82
  41	  83
  41	  94
  41	  95
  41	  97
  41	  99
  41	 100
  41	 104
  41	 115
  42	  50
  42	  51
  42	  55
  42	  59
  42	  60
  42	  69
  42	  94
  42	  96
  42	  97
  42	  99
  42	 100
  42	 101
  42	 103
  42	 110
  42	 117
  43	  59
  43	  61
  43	  62
  43	  65
  43	  67
  43	  81
  43	  98
  43	 101
  43	 102
  43	 115
  43	 118
  44	  45
  44	  46
  44	  52
  44	  57
  44	  59
  44	  66
  44	  69
  44	  72
  44	  75
  44	  77
  44	  78
  44	  79
  44	  80
  44	  83
  44	  95
  44	  97
  44	  98
  44	  99
  44	 103
  44	 113
  44	 114
  44	 116
  44	 117
  45	  46
  45	  47
  45	  49
  45	  56
  45	  59
  45	  61
  45	  62
  45	  65
  45	  66
  45	  67
  45	  68
  45	  86
  45	  90
  45	  92
  45	  96
  45	 103
  45	 114
  45	 118
  46	  47
  46	  54
  46	  62
  46	  63
  46	  70
  46	  77
  46	  78
  46	  90
  46	  99
  46	 102
  46	 108
  46	 110
  46	 111
  46	 116
  47	  56
  47	  57
  47	  61
  47	  63
  47	  64
  47	  65
  47	  71
  47	  72
  47	  74
  47	  77
  47	  78
  47	  89
  47	  90
  47	  93
  47	  95
  47	  96
  47	 100
  47	 102
  47	 103
  48	  63
  48	  65
  48	  69
  48	  83
  48	  88
  48	 102
  49	  59
  49	  63
  49	  76
  49	  86
  49	  96
  49	  97
  49	 101
  49	 104
  49	 109
  49	 112
  49	 114
  49	 118
  50	  56
  50	  57
  50	  64
  50	  73
  50	  79
  50	  82
  50	  89
  50	  95
  50	 106
  50	 108
  50	 109
  50	 115
  50	 116
  50	 119
  51	  52
  51	  57
  51	  62
  51	  68
  51	  74
  51	  75
  51	  85
  51	  91
  51	  99
  51	 103
  51	 104
  51	 107
  51	 112
  51	 116
  52	  55
  52	  58
  52	  66
  52	  72
  52	  73
  52	  75
  52	  78
  52	  87
  52	  90
  52	 101
  52	 102
  52	 103
  52	 111
  52	 114
  53	  60
  53	  64
  53	  66
  53	  67
  53	  69
  53	  74
  53	  76
  53	  77
  53	  86
  53	  87
  53	  91
  53	  95
  53	 106
  53	 115
  54	  60
  54	  68
  54	  69
  54	  72
  54	  73
  54	  74
  54	  78
  54	  91
  54	  95
  54	  97
  54	  99
  54	 101
  54	 103
  54	 114
  55	  59
  55	  68
  55	  70
  55	  72
  55	  94
  55	  98
  55	 100
  55	 101
  55	 102
  55	 107
  55	 108
  55	 113
  55	 118
  56	  59
  56	  68
  56	  73
  56	  87
  56	  97
  56	 101
  56	 106
  56	 113
  56	 114
  56	 117
  56	 119
  57	  63
  57	  64
  57	  65
  57	  66
  57	  68
  57	  74
  57	  80
  57	  81
  57	  89
  57	  92
  57	 100
  57	 103
  57	 104
  57	 108
  57	 111
  57	 115
  58	  63
  58	  66
  58	  68
  58	  72
  58	  73
  58	  75
  58	  78
  58	  79
  58	  89
  58	  98
  58	 109
  58	 115
  58	 118
  59	  62
  59	  66
  59	  70
  59	  72
  59	  73
  59	  76
  59	  81
  59	  84
  59	  86
  59	  89
  59	  91
  59	  97
  59	 101
  59	 103
  59	 113
  60	  65
  60	  69
  60	  73
  60	  76
  60	  77
  60	  78
  60	  80
  60	  84
  60	  89
  60	  91
  60	  95
  60	 104
  60	 105
  60	 106
  60	 107
  60	 109
  60	 111
  60	 113
  61	  70
  61	  72
  61	  81
  61	  82
  61	  85
  61	  92
  61	  97
  61	  98
  61	 105
  61	 109
  61	 110
  61	 112
  61	 115
  61	 118
  62	  96
  62	 107
  62	 109
  62	 119
  63	  65
  63	  66
  63	  73
  63	  74
  63	  82
  63	  90
  63	  94
  63	 101
  63	 108
  63	 111
  63	 114
  63	 115
  64	  73
  64	  74
  64	  75
  64	  89
  64	  91
  64	  95
  64	  96
  64	 102
  64	 103
  64	 113
  65	  68
  65	  74
  65	  78
  65	  79
  65	  81
  65	  83
  65	  85
  65	  89
  65	  94
  65	  99
  65	 116
  65	 117
  66	  68
  66	  69
  66	  73
  66	  92
  66	  93
  66	  94
  66	 100
  66	 103
  66	 104
  66	 105
  66	 109
  66	 111
  66	 112
  67	  68
  67	  70
  67	  73
  67	  77
  67	  80
  67	  87
  67	  91
  67	  92
  67	  98
  67	 104
  67	 105
  67	 106
  67	 113
  67	 117
  68	  76
  68	  90
  68	  91
  68	  95
  68	 105
  68	 106
  68	 111
  68	 116
  68	 118
  69	  71
  69	  73
  69	  74
  69	  76
  69	  79
  69	  82
  69	  99
  69	 100
  69	 103
  69	 109
  69	 114
  69	 118
  70	  82
  70	  85
  70	  88
  70	  92
  70	 104
  70	 105
  70	 106
  71	  77
  71	  92
  71	  93
  71	 100
  71	 108
  71	 118
  72	  77
  72	  85
  72	  95
  72	  97
  72	  98
  72	 105
  72	 107
  72	 115
  73	  75
  73	  79
  73	  86
  73	  89
  73	  90
  73	  91
  73	 101
  73	 106
  73	 109
  73	 111
  73	 114
  73	 117
  74	  77
  74	  78
  74	  79
  74	  86
  74	  88
  74	  97
  74	 102
  74	 107
  74	 108
  74	 112
  74	 118
  75	  86
  75	  87
  75	  89
  75	  93
  75	 100
  75	 103
  75	 106
  75	 109
  75	 113
  75	 115
  76	  78
  76	  82
  76	  94
  76	  98
  76	 100
  76	 110
  76	 116
  76	 118
  77	  80
  77	  81
  77	  82
  77	  84
  77	  86
  77	  88
  77	  90
  77	  91
  77	  92
  77	  94
  77	  96
  77	 100
  77	 103
  77	 105
  77	 106
  77	 113
  77	 117
  77	 119
  78	  79
  78	  81
  78	  84
  78	  85
  78	  88
  78	  95
  78	  97
  78	  98
  78	 102
  78	 113
  78	 114
  79	  83
  79	  85
  79	  91
  79	  92
  79	  93
  79	 105
  79	 107
  79	 108
  80	  83
  80	  97
  80	 104
  80	 107
  80	 111
  80	 114
  80	 117
  81	  86
  81	  89
  81	  93
  81	  96
  81	  98
  81	 101
  82	  86
  82	  87
  82	  89
  82	  90
  82	  91
  82	  98
  82	  99
  82	 106
  82	 108
  82	 113
  82	 118
  82	 119
  83	  94
  83	 116
  83	 117
  84	 101
  84	 108
  84	 115
  85	  89
  85	  90
  85	 100
  85	 102
  85	 104
  85	 106
  85	 108
  85	 111
  85	 114
  85	 118
  85	 119
  86	  93
  86	  98
  86	 100
  87	  91
  87	  96
  87	 103
  87	 108
  87	 110
  87	 112
  87	 118
  88	  97
  88	  99
  88	 101
  88	 109
  89	  94
  89	 105
  89	 111
  89	 114
  89	 115
  89	 116
  89	 117
  89	 118
  90	  96
  90	 101
  90	 102
  90	 103
  90	 105
  90	 114
  91	  94
  91	 100
  91	 103
  91	 107
  91	 109
  91	 117
  92	  94
  92	  98
  92	 106
  92	 117
  93	  98
  93	 106
  93	 112
  93	 117
  94	 100
  94	 101
  94	 107
  94	 108
  94	 114
  95	  96
  95	  99
  95	 106
  95	 118
  96	 101
  96	 102
  96	 103
  96	 105
  96	 112
  96	 117
  96	 118
  98	  99
  98	 103
  98	 104
  98	 110
  98	 114
  99	 105
  99	 108
  99	 110
  99	 112
  99	 117
 100	 101
 100	 104
 100	 107
 100	 110
 100	 116
 101	 102
 101	 109
 101	 114
 102	 103
 102	 107
 102	 111
 103	 109
 103	 111
 103	 113
 103	 117
 104	 107
 104	 109
 104	 111
 104	 115
 104	 119
 105	 106
 105	 109
 105	 111
 105	 118
 106	 111
 106	 112
 106	 118
 107	 110
 107	 111
 107	 113
 107	 117
 108	 115
 108	 117
 109	 110
 109	 117
 110	 115
 110	 118
 111	 112
 112	 114
 112	 117
 113	 116
 113	 117
 113	 118
 114	 115
 116	 117
 116	 118
 116	 119
 117	 119
;
